3 3 2
25 2 20 1 49 2 26 0 30 1 42 2 27 1 20 0 14 2 34 0 39 2 20 1 25 0 41 2 36 1 10 0 13 2 47 1 43 2 22 1 35 0 18 2 27 1 13 0 1 2 22 
25 1 3 0 34 1 27 2 19 1 14 0 5 1 29 0 17 2 17 0 1 2 13 1 41 0 10 2 14 0 46 2 15 0 16 2 33 0 20 2 30 1 40 0 9 1 23 2 37 1 45 
25 0 11 2 13 0 4 1 21 0 47 1 37 0 15 2 37 1 45 2 17 0 33 1 23 2 27 1 32 2 45 1 38 0 45 1 8 2 28 0 20 1 5 0 7 1 22 2 5 0 36 

-------------
